============================[ Problem Statistics ]=============================|                                                                             ||  Number of variables:          4242                                         ||  Number of clauses:           10248                                         ||  Parse time:                   0.64 s                                       ||                                                                             |============================[ Search Statistics ]==============================| Conflicts |          ORIGINAL         |          LEARNT          | Progress ||           |    Vars  Clauses Literals |    Limit  Clauses Lit/Cl |          |===============================================================================|       100 |    1591     6453  1014124 |     2366      100     53 | 62.501 % ||       250 |    1591     6453  1014124 |     2602      250     75 | 62.495 % |===============================================================================restarts              : 3conflicts             : 348            (359 /sec)decisions             : 614            (0.00 % random) (633 /sec)propagations          : 11952          (12322 /sec)conflict literals     : 28217          (94.64 % deleted)CPU time              : 0.97 sSATISFIABLE